SECTION Graph 
Nodes 27
Edges 26
E 19 21 2481523
E 6 25 2629951
E 18 21 636889
E 10 22 204519
E 17 23 733277
E 17 21 1616916
E 8 24 508237
E 8 22 2265459
E 16 23 202204
E 16 22 413712
E 24 25 911870
E 14 25 1000538
E 2 7 1828193
E 2 23 1144214
E 7 20 162275
E 20 26 428755
E 15 26 233391
E 13 26 583916
E 9 15 840500
E 4 13 1355701
E 3 27 114413
E 3 24 2690761
E 1 27 633947
E 11 27 1624610
E 5 12 971565
E 5 11 1630081
END 

SECTION Terminals 
Terminals 20
TP 1 11
TP 2 12
TP 3 13
TP 4 14
TP 5 15
TP 6 16
TP 7 17
TP 8 18
TP 9 19
TP 10 20
END 
